40
    62    83    63    75    18    87    28    46    73    44    99    55    62    99    14    61    48    50    86    24    20    46     6     9    98    92    45    84    27    44    51    19    83    11    49    89    68    58    46    71
     4     8     4     3    10     4     5     4     1     9     7     8     1     8     6     3     5    10     4     7     6     1     2     2     6     3     7     7     3     4    10     5     5     6     4     9    10     1     6     1
   236   261  1737   227   383  1094   776  1307  1372   671    88   172   684  1525  1628   615   870  1468  1711  1129   623    98    52   983   751   941   916   167   499   441  1124   218    23   609  1714   654   223  1524  1209  1551
